p cnf 69 260
2 3 -4 0
-2 -3 -4 0
2 -3 4 0
-2 3 4 0
5 -1 0
5 4 0
1 -4 -5 0
6 7 -8 0
-6 -7 -8 0
6 -7 8 0
-6 7 8 0
5 -8 -9 0
-5 8 -9 0
5 8 9 0
-5 -8 9 0
-9 -4 -10 0
9 4 -10 0
-9 4 10 0
9 -4 10 0
-3 -11 -12 0
3 11 -12 0
-3 11 12 0
3 -11 12 0
13 -12 0
13 -2 0
12 2 -13 0
10 -13 -14 0
-10 13 -14 0
10 13 14 0
-10 -13 14 0
16 -15 0
16 4 0
15 -4 -16 0
12 1 -17 0
-12 -1 -17 0
12 -1 17 0
-12 1 17 0
-17 16 -18 0
17 -16 -18 0
-17 -16 18 0
17 16 18 0
-19 -16 0
-19 -18 0
16 18 19 0
-21 -20 0
-21 -6 0
20 6 21 0
-22 -12 0
-22 -6 0
12 6 22 0
-23 -22 0
-23 11 0
22 -11 23 0
-24 3 0
-24 23 0
-3 -23 24 0
25 21 0
25 24 0
-21 -24 -25 0
-27 -20 0
-27 26 0
20 -26 27 0
28 -26 0
28 -27 0
26 27 -28 0
-29 -28 0
-29 23 0
28 -23 29 0
11 30 0
-11 30 0
31 -29 0
31 30 0
29 -30 -31 0
25 -31 -32 0
-25 31 -32 0
25 31 32 0
-25 -31 32 0
-33 -19 0
-33 -32 0
19 32 33 0
-34 4 0
-34 6 0
-4 -6 34 0
34 -1 -35 0
-34 1 -35 0
34 1 35 0
-34 -1 35 0
4 -35 -36 0
-4 35 -36 0
4 35 36 0
-4 -35 36 0
37 20 0
37 -6 0
-20 6 -37 0
-38 -36 0
-38 -37 0
36 37 38 0
39 17 0
39 -5 0
-17 5 -39 0
-40 -39 0
-40 24 0
39 -24 40 0
-28 -23 -41 0
28 23 -41 0
-28 23 41 0
28 -23 41 0
-42 -37 0
-42 -41 0
37 41 42 0
-40 -42 -43 0
40 42 -43 0
-40 42 43 0
40 -42 43 0
44 38 0
44 -43 0
-38 43 -44 0
33 -44 -45 0
-33 44 -45 0
33 44 45 0
-33 -44 45 0
46 -14 0
46 -45 0
14 45 -46 0
-11 35 -47 0
11 -35 -47 0
-11 -35 47 0
11 35 47 0
-48 -47 0
-48 1 0
47 -1 48 0
-35 -27 -49 0
35 27 -49 0
-35 27 49 0
35 -27 49 0
-48 -49 -50 0
48 49 -50 0
-48 49 50 0
48 -49 50 0
-51 28 0
-51 -1 0
-28 1 51 0
-52 51 0
-52 3 0
-51 -3 52 0
-2 -52 -53 0
2 52 -53 0
-2 52 53 0
2 -52 53 0
-55 -28 0
-55 12 0
28 -12 55 0
21 15 -56 0
-21 -15 -56 0
21 -15 56 0
-21 15 56 0
57 56 0
57 1 0
-56 -1 -57 0
58 55 0
58 57 0
-55 -57 -58 0
59 54 0
59 58 0
-54 -58 -59 0
-60 53 0
-60 -59 0
-53 59 60 0
61 -1 0
61 26 0
1 -26 -61 0
-34 -61 -62 0
34 61 -62 0
-34 61 62 0
34 -61 62 0
63 28 0
63 -62 0
-28 62 -63 0
63 51 -64 0
-63 -51 -64 0
63 -51 64 0
-63 51 64 0
-65 60 0
-65 64 0
-60 -64 65 0
50 -65 -66 0
-50 65 -66 0
50 65 66 0
-50 -65 66 0
-67 46 0
-67 66 0
-46 -66 67 0
-6 -16 -68 0
6 16 -68 0
-6 16 68 0
6 -16 68 0
69 -67 0
69 68 0
67 -68 -69 0
-18 39 0
52 -8 -37 0
-42 -10 -37 2 0
-29 -19 -4 -46 -15 -13 0
-16 -56 0
55 45 65 0
43 52 -2 42 0
9 -69 64 -42 63 -12 0
39 66 64 51 -25 0
62 -41 24 53 0
-45 5 21 -1 0
2 46 -44 -40 0
-16 4 19 -39 0
59 63 -66 65 -49 0
-64 58 -68 13 -62 0
-60 -49 2 0
-14 -6 -2 0
18 47 15 13 -58 0
-38 28 -18 -5 -23 0
41 50 -7 -57 0
-68 -22 48 -45 0
57 6 0
13 -2 -8 0
19 60 -10 0
-47 33 -6 -15 50 31 0
25 23 36 -40 0
-68 50 12 69 17 0
64 -3 31 -22 -25 0
-18 -11 55 -28 0
64 -1 58 -51 21 0
2 20 -30 -12 10 -7 0
68 -60 0
-25 -65 -19 0
2 -65 20 -4 42 27 0
-69 -11 -62 -29 0
7 -25 -50 51 0
26 -63 -45 13 53 0
-43 -12 -22 4 -21 0
10 41 55 54 -25 0
-58 -25 -55 0
26 -39 13 0
-20 -57 0
10 23 -62 48 -12 0
-38 -37 0
27 -26 -21 64 -29 -44 0
-7 40 -10 56 67 -14 0
-63 49 68 -52 0
-23 -4 26 54 0
-47 50 54 22 -38 0
-13 22 31 9 -15 0
-67 -36 -35 -40 -66 -45 0
46 32 -20 -40 0
49 23 -13 0
-27 -37 48 0
-53 42 0
19 65 14 -46 3 0
-63 -3 -67 0
23 -53 -69 -60 15 -51 0
-64 -65 -69 22 -58 0
38 61 54 68 -46 -55 0
69 0
